; benchmark generated from python API
(set-info :status unknown)
(declare-fun x_epoch () Int)
(declare-fun x_plus_epoch () Int)
(declare-fun x_plus_month () Int)
(declare-fun x_plus_year () Int)
(declare-fun x_plus_day () Int)
(assert
 (>= x_epoch (- 36525)))
(assert
 (<= x_epoch 36523))
(assert
 (= x_epoch 7304))
(assert
 (>= x_plus_epoch (- 36525)))
(assert
 (<= x_plus_epoch 36523))
(assert
 (let (($x958 (= x_plus_month 11)))
 (let (($x2743 (= x_plus_month 9)))
 (let (($x1046 (= x_plus_month 6)))
 (let (($x3200 (= x_plus_month 4)))
 (let ((?x2383 (ite (or $x3200 $x1046 $x2743 $x958) 30 31)))
 (let (($x440 (= (mod x_plus_year 400) 0)))
 (let (($x1460 (= (mod x_plus_year 4) 0)))
 (let (($x1125 (or (and $x1460 (and (distinct (mod x_plus_year 100) 0) true)) $x440)))
 (let (($x402 (= x_plus_month 2)))
 (let (($x1536 (>= x_plus_day 1)))
 (let (($x3720 (<= x_plus_month 12)))
 (let (($x2854 (>= x_plus_month 1)))
 (let (($x987 (<= x_plus_year 2100)))
 (let (($x501 (>= x_plus_year 1900)))
 (and $x501 $x987 $x2854 $x3720 $x1536 (<= x_plus_day (ite $x402 (ite $x1125 29 28) ?x2383))))))))))))))))))
(assert
 (let (($x440 (= (mod x_plus_year 400) 0)))
 (let (($x1460 (= (mod x_plus_year 4) 0)))
 (let (($x1125 (or (and $x1460 (and (distinct (mod x_plus_year 100) 0) true)) $x440)))
 (let ((?x3091 (ite (= 2 x_plus_month) (ite $x1125 31 31) (ite (= 1 x_plus_month) (ite $x1125 0 0) 0))))
 (let ((?x926 (ite (= 4 x_plus_month) (ite $x1125 91 90) (ite (= 3 x_plus_month) (ite $x1125 60 59) ?x3091))))
 (let ((?x735 (ite (= 6 x_plus_month) (ite $x1125 152 151) (ite (= 5 x_plus_month) (ite $x1125 121 120) ?x926))))
 (let ((?x693 (ite (= 8 x_plus_month) (ite $x1125 213 212) (ite (= 7 x_plus_month) (ite $x1125 182 181) ?x735))))
 (let ((?x694 (ite (= 10 x_plus_month) (ite $x1125 274 273) (ite (= 9 x_plus_month) (ite $x1125 244 243) ?x693))))
 (let ((?x1462 (ite (= 12 x_plus_month) (ite $x1125 335 334) (ite (= 11 x_plus_month) (ite $x1125 305 304) ?x694))))
 (let ((?x3469 (+ (* 365 (- x_plus_year 1)) (div (- x_plus_year 1) 4))))
 (let ((?x2678 (+ (- ?x3469 (div (- x_plus_year 1) 100)) (div (- x_plus_year 1) 400))))
 (= x_plus_epoch (- (+ (+ ?x2678 ?x1462) (- x_plus_day 1)) 730179))))))))))))))
(assert
 (let ((?x422 (+ x_epoch 730179)))
 (let ((?x3702 (mod ?x422 146097)))
 (let ((?x829 (div ?x3702 36524)))
 (let ((?x981 (ite (<= 4 ?x829) 3 ?x829)))
 (let ((?x701 (- ?x3702 (* ?x981 36524))))
 (let ((?x772 (mod ?x701 1461)))
 (let ((?x840 (div ?x772 365)))
 (let ((?x865 (ite (<= 4 ?x840) 3 ?x840)))
 (let ((?x442 (+ (+ (* (div ?x422 146097) 400) (* ?x981 100)) (* (div ?x701 1461) 4))))
 (let ((?x481 (+ (+ ?x442 ?x865) 1)))
 (let (($x1485 (or (and (= (mod ?x481 4) 0) (and (distinct (mod ?x481 100) 0) true)) (= (mod ?x481 400) 0))))
 (let ((?x627 (- ?x772 (* ?x865 365))))
 (let ((?x2063 (ite $x1485 31 31)))
 (let (($x862 (>= ?x627 ?x2063)))
 (let ((?x1133 (ite $x862 (+ (- ?x627 ?x2063) 1) (+ (- ?x627 (ite $x1485 0 0)) 1))))
 (let ((?x825 (ite $x1485 60 59)))
 (let (($x991 (>= ?x627 ?x825)))
 (let ((?x944 (ite $x1485 91 90)))
 (let (($x620 (>= ?x627 ?x944)))
 (let ((?x756 (ite $x620 (+ (- ?x627 ?x944) 1) (ite $x991 (+ (- ?x627 ?x825) 1) ?x1133))))
 (let ((?x423 (ite $x1485 121 120)))
 (let (($x805 (>= ?x627 ?x423)))
 (let ((?x1175 (ite $x1485 152 151)))
 (let (($x429 (>= ?x627 ?x1175)))
 (let ((?x632 (ite $x429 (+ (- ?x627 ?x1175) 1) (ite $x805 (+ (- ?x627 ?x423) 1) ?x756))))
 (let ((?x545 (ite $x1485 182 181)))
 (let (($x843 (>= ?x627 ?x545)))
 (let ((?x563 (ite $x1485 213 212)))
 (let (($x447 (>= ?x627 ?x563)))
 (let ((?x809 (ite $x447 (+ (- ?x627 ?x563) 1) (ite $x843 (+ (- ?x627 ?x545) 1) ?x632))))
 (let ((?x621 (ite $x1485 244 243)))
 (let (($x855 (>= ?x627 ?x621)))
 (let ((?x2528 (ite $x1485 274 273)))
 (let (($x823 (>= ?x627 ?x2528)))
 (let ((?x443 (ite $x823 (+ (- ?x627 ?x2528) 1) (ite $x855 (+ (- ?x627 ?x621) 1) ?x809))))
 (let ((?x450 (ite $x1485 305 304)))
 (let (($x577 (>= ?x627 ?x450)))
 (let ((?x3151 (ite $x1485 335 334)))
 (let (($x972 (>= ?x627 ?x3151)))
 (let ((?x492 (ite $x972 (+ (- ?x627 ?x3151) 1) (ite $x577 (+ (- ?x627 ?x450) 1) ?x443))))
 (let ((?x807 (+ (* 1 12) 0)))
 (let ((?x850 (ite $x805 5 (ite $x620 4 (ite $x991 3 (ite $x862 2 1))))))
 (let ((?x890 (ite $x855 9 (ite $x447 8 (ite $x843 7 (ite $x429 6 ?x850))))))
 (let ((?x738 (ite $x972 12 (ite $x577 11 (ite $x823 10 ?x890)))))
 (let ((?x2626 (+ ?x738 ?x807)))
 (let ((?x1066 (- ?x2626 1)))
 (let ((?x755 (+ (mod ?x1066 12) 1)))
 (let ((?x3122 (ite (or (= ?x755 4) (= ?x755 6) (= ?x755 9) (= ?x755 11)) 30 31)))
 (let (($x513 (and (= (mod (+ ?x481 (+ 0 (div ?x1066 12))) 4) 0) (and (distinct (mod (+ ?x481 (+ 0 (div ?x1066 12))) 100) 0) true))))
 (let (($x3529 (or $x513 (= (mod (+ ?x481 (+ 0 (div ?x1066 12))) 400) 0))))
 (let ((?x3483 (ite (= ?x755 2) (ite $x3529 29 28) ?x3122)))
 (let ((?x485 (ite (> 1 ?x492) 1 (ite (> ?x492 ?x3483) ?x3483 ?x492))))
 (let ((?x511 (ite (> 1 ?x485) 1 (ite (> ?x485 ?x3483) ?x3483 ?x485))))
 (let ((?x898 (ite (= 2 ?x755) (ite $x3529 31 31) (ite (= 1 ?x755) (ite $x3529 0 0) 0))))
 (let ((?x3484 (ite (= 4 ?x755) (ite $x3529 91 90) (ite (= 3 ?x755) (ite $x3529 60 59) ?x898))))
 (let ((?x1126 (ite (= 6 ?x755) (ite $x3529 152 151) (ite (= 5 ?x755) (ite $x3529 121 120) ?x3484))))
 (let ((?x3057 (ite (= 8 ?x755) (ite $x3529 213 212) (ite (= 7 ?x755) (ite $x3529 182 181) ?x1126))))
 (let ((?x3030 (ite (= 10 ?x755) (ite $x3529 274 273) (ite (= 9 ?x755) (ite $x3529 244 243) ?x3057))))
 (let ((?x1037 (ite (= 12 ?x755) (ite $x3529 335 334) (ite (= 11 ?x755) (ite $x3529 305 304) ?x3030))))
 (let ((?x3271 (+ (* 365 (- (+ ?x481 (+ 0 (div ?x1066 12))) 1)) (div (- (+ ?x481 (+ 0 (div ?x1066 12))) 1) 4))))
 (let ((?x1835 (+ (- ?x3271 (div (- (+ ?x481 (+ 0 (div ?x1066 12))) 1) 100)) (div (- (+ ?x481 (+ 0 (div ?x1066 12))) 1) 400))))
 (let ((?x1176 (+ (+ (- (+ (+ ?x1835 ?x1037) (- ?x511 1)) 730179) 0) 730179)))
 (let ((?x838 (mod ?x1176 146097)))
 (let ((?x1550 (div ?x838 36524)))
 (let ((?x1763 (ite (<= 4 ?x1550) 3 ?x1550)))
 (let ((?x1859 (- ?x838 (* ?x1763 36524))))
 (let ((?x3719 (mod ?x1859 1461)))
 (let ((?x539 (div ?x3719 365)))
 (let ((?x623 (ite (<= 4 ?x539) 3 ?x539)))
 (let ((?x692 (+ (+ (* (div ?x1176 146097) 400) (* ?x1763 100)) (* (div ?x1859 1461) 4))))
 (let ((?x715 (+ (+ ?x692 ?x623) 1)))
 (let ((?x966 (+ 0 (div ?x1066 12))))
 (let ((?x3210 (+ ?x481 ?x966)))
 (let (($x1083 (= 0 0)))
 (let ((?x2097 (ite $x1083 ?x3210 ?x715)))
 (= x_plus_year ?x2097)))))))))))))))))))))))))))))))))))))))))))))))))))))))))))))))))))))))))))))
(assert
 (let ((?x422 (+ x_epoch 730179)))
 (let ((?x3702 (mod ?x422 146097)))
 (let ((?x829 (div ?x3702 36524)))
 (let ((?x981 (ite (<= 4 ?x829) 3 ?x829)))
 (let ((?x701 (- ?x3702 (* ?x981 36524))))
 (let ((?x772 (mod ?x701 1461)))
 (let ((?x840 (div ?x772 365)))
 (let ((?x865 (ite (<= 4 ?x840) 3 ?x840)))
 (let ((?x442 (+ (+ (* (div ?x422 146097) 400) (* ?x981 100)) (* (div ?x701 1461) 4))))
 (let ((?x481 (+ (+ ?x442 ?x865) 1)))
 (let (($x1485 (or (and (= (mod ?x481 4) 0) (and (distinct (mod ?x481 100) 0) true)) (= (mod ?x481 400) 0))))
 (let ((?x627 (- ?x772 (* ?x865 365))))
 (let ((?x2063 (ite $x1485 31 31)))
 (let (($x862 (>= ?x627 ?x2063)))
 (let ((?x1133 (ite $x862 (+ (- ?x627 ?x2063) 1) (+ (- ?x627 (ite $x1485 0 0)) 1))))
 (let ((?x825 (ite $x1485 60 59)))
 (let (($x991 (>= ?x627 ?x825)))
 (let ((?x944 (ite $x1485 91 90)))
 (let (($x620 (>= ?x627 ?x944)))
 (let ((?x756 (ite $x620 (+ (- ?x627 ?x944) 1) (ite $x991 (+ (- ?x627 ?x825) 1) ?x1133))))
 (let ((?x423 (ite $x1485 121 120)))
 (let (($x805 (>= ?x627 ?x423)))
 (let ((?x1175 (ite $x1485 152 151)))
 (let (($x429 (>= ?x627 ?x1175)))
 (let ((?x632 (ite $x429 (+ (- ?x627 ?x1175) 1) (ite $x805 (+ (- ?x627 ?x423) 1) ?x756))))
 (let ((?x545 (ite $x1485 182 181)))
 (let (($x843 (>= ?x627 ?x545)))
 (let ((?x563 (ite $x1485 213 212)))
 (let (($x447 (>= ?x627 ?x563)))
 (let ((?x809 (ite $x447 (+ (- ?x627 ?x563) 1) (ite $x843 (+ (- ?x627 ?x545) 1) ?x632))))
 (let ((?x621 (ite $x1485 244 243)))
 (let (($x855 (>= ?x627 ?x621)))
 (let ((?x2528 (ite $x1485 274 273)))
 (let (($x823 (>= ?x627 ?x2528)))
 (let ((?x443 (ite $x823 (+ (- ?x627 ?x2528) 1) (ite $x855 (+ (- ?x627 ?x621) 1) ?x809))))
 (let ((?x450 (ite $x1485 305 304)))
 (let (($x577 (>= ?x627 ?x450)))
 (let ((?x3151 (ite $x1485 335 334)))
 (let (($x972 (>= ?x627 ?x3151)))
 (let ((?x492 (ite $x972 (+ (- ?x627 ?x3151) 1) (ite $x577 (+ (- ?x627 ?x450) 1) ?x443))))
 (let ((?x807 (+ (* 1 12) 0)))
 (let ((?x850 (ite $x805 5 (ite $x620 4 (ite $x991 3 (ite $x862 2 1))))))
 (let ((?x890 (ite $x855 9 (ite $x447 8 (ite $x843 7 (ite $x429 6 ?x850))))))
 (let ((?x738 (ite $x972 12 (ite $x577 11 (ite $x823 10 ?x890)))))
 (let ((?x2626 (+ ?x738 ?x807)))
 (let ((?x1066 (- ?x2626 1)))
 (let ((?x755 (+ (mod ?x1066 12) 1)))
 (let ((?x3122 (ite (or (= ?x755 4) (= ?x755 6) (= ?x755 9) (= ?x755 11)) 30 31)))
 (let (($x513 (and (= (mod (+ ?x481 (+ 0 (div ?x1066 12))) 4) 0) (and (distinct (mod (+ ?x481 (+ 0 (div ?x1066 12))) 100) 0) true))))
 (let (($x3529 (or $x513 (= (mod (+ ?x481 (+ 0 (div ?x1066 12))) 400) 0))))
 (let ((?x3483 (ite (= ?x755 2) (ite $x3529 29 28) ?x3122)))
 (let ((?x485 (ite (> 1 ?x492) 1 (ite (> ?x492 ?x3483) ?x3483 ?x492))))
 (let ((?x511 (ite (> 1 ?x485) 1 (ite (> ?x485 ?x3483) ?x3483 ?x485))))
 (let ((?x898 (ite (= 2 ?x755) (ite $x3529 31 31) (ite (= 1 ?x755) (ite $x3529 0 0) 0))))
 (let ((?x3484 (ite (= 4 ?x755) (ite $x3529 91 90) (ite (= 3 ?x755) (ite $x3529 60 59) ?x898))))
 (let ((?x1126 (ite (= 6 ?x755) (ite $x3529 152 151) (ite (= 5 ?x755) (ite $x3529 121 120) ?x3484))))
 (let ((?x3057 (ite (= 8 ?x755) (ite $x3529 213 212) (ite (= 7 ?x755) (ite $x3529 182 181) ?x1126))))
 (let ((?x3030 (ite (= 10 ?x755) (ite $x3529 274 273) (ite (= 9 ?x755) (ite $x3529 244 243) ?x3057))))
 (let ((?x1037 (ite (= 12 ?x755) (ite $x3529 335 334) (ite (= 11 ?x755) (ite $x3529 305 304) ?x3030))))
 (let ((?x3271 (+ (* 365 (- (+ ?x481 (+ 0 (div ?x1066 12))) 1)) (div (- (+ ?x481 (+ 0 (div ?x1066 12))) 1) 4))))
 (let ((?x1835 (+ (- ?x3271 (div (- (+ ?x481 (+ 0 (div ?x1066 12))) 1) 100)) (div (- (+ ?x481 (+ 0 (div ?x1066 12))) 1) 400))))
 (let ((?x1176 (+ (+ (- (+ (+ ?x1835 ?x1037) (- ?x511 1)) 730179) 0) 730179)))
 (let ((?x838 (mod ?x1176 146097)))
 (let ((?x1550 (div ?x838 36524)))
 (let ((?x1763 (ite (<= 4 ?x1550) 3 ?x1550)))
 (let ((?x1859 (- ?x838 (* ?x1763 36524))))
 (let ((?x3719 (mod ?x1859 1461)))
 (let ((?x539 (div ?x3719 365)))
 (let ((?x623 (ite (<= 4 ?x539) 3 ?x539)))
 (let ((?x692 (+ (+ (* (div ?x1176 146097) 400) (* ?x1763 100)) (* (div ?x1859 1461) 4))))
 (let ((?x715 (+ (+ ?x692 ?x623) 1)))
 (let (($x967 (or (and (= (mod ?x715 4) 0) (and (distinct (mod ?x715 100) 0) true)) (= (mod ?x715 400) 0))))
 (let ((?x412 (ite $x967 31 31)))
 (let ((?x673 (- ?x3719 (* ?x623 365))))
 (let (($x3140 (>= ?x673 ?x412)))
 (let ((?x1699 (ite $x967 60 59)))
 (let (($x1174 (>= ?x673 ?x1699)))
 (let ((?x1103 (ite $x967 91 90)))
 (let (($x590 (>= ?x673 ?x1103)))
 (let ((?x2946 (ite $x967 121 120)))
 (let (($x508 (>= ?x673 ?x2946)))
 (let ((?x749 (ite $x508 5 (ite $x590 4 (ite $x1174 3 (ite $x3140 2 1))))))
 (let ((?x2645 (ite $x967 152 151)))
 (let (($x524 (>= ?x673 ?x2645)))
 (let ((?x810 (ite $x967 182 181)))
 (let (($x2892 (>= ?x673 ?x810)))
 (let ((?x2914 (ite $x967 213 212)))
 (let (($x3190 (>= ?x673 ?x2914)))
 (let ((?x757 (ite $x967 244 243)))
 (let (($x575 (>= ?x673 ?x757)))
 (let ((?x1727 (ite $x575 9 (ite $x3190 8 (ite $x2892 7 (ite $x524 6 ?x749))))))
 (let ((?x2915 (ite $x967 274 273)))
 (let (($x1528 (>= ?x673 ?x2915)))
 (let ((?x1769 (ite $x967 305 304)))
 (let (($x3071 (>= ?x673 ?x1769)))
 (let ((?x557 (ite $x967 335 334)))
 (let (($x1214 (>= ?x673 ?x557)))
 (let (($x1083 (= 0 0)))
 (let ((?x608 (ite $x1083 ?x755 (ite $x1214 12 (ite $x3071 11 (ite $x1528 10 ?x1727))))))
 (= x_plus_month ?x608)))))))))))))))))))))))))))))))))))))))))))))))))))))))))))))))))))))))))))))))))))))))))))))))))))))
(assert
 (let ((?x422 (+ x_epoch 730179)))
 (let ((?x3702 (mod ?x422 146097)))
 (let ((?x829 (div ?x3702 36524)))
 (let ((?x981 (ite (<= 4 ?x829) 3 ?x829)))
 (let ((?x701 (- ?x3702 (* ?x981 36524))))
 (let ((?x772 (mod ?x701 1461)))
 (let ((?x840 (div ?x772 365)))
 (let ((?x865 (ite (<= 4 ?x840) 3 ?x840)))
 (let ((?x442 (+ (+ (* (div ?x422 146097) 400) (* ?x981 100)) (* (div ?x701 1461) 4))))
 (let ((?x481 (+ (+ ?x442 ?x865) 1)))
 (let (($x1485 (or (and (= (mod ?x481 4) 0) (and (distinct (mod ?x481 100) 0) true)) (= (mod ?x481 400) 0))))
 (let ((?x627 (- ?x772 (* ?x865 365))))
 (let ((?x2063 (ite $x1485 31 31)))
 (let (($x862 (>= ?x627 ?x2063)))
 (let ((?x1133 (ite $x862 (+ (- ?x627 ?x2063) 1) (+ (- ?x627 (ite $x1485 0 0)) 1))))
 (let ((?x825 (ite $x1485 60 59)))
 (let (($x991 (>= ?x627 ?x825)))
 (let ((?x944 (ite $x1485 91 90)))
 (let (($x620 (>= ?x627 ?x944)))
 (let ((?x756 (ite $x620 (+ (- ?x627 ?x944) 1) (ite $x991 (+ (- ?x627 ?x825) 1) ?x1133))))
 (let ((?x423 (ite $x1485 121 120)))
 (let (($x805 (>= ?x627 ?x423)))
 (let ((?x1175 (ite $x1485 152 151)))
 (let (($x429 (>= ?x627 ?x1175)))
 (let ((?x632 (ite $x429 (+ (- ?x627 ?x1175) 1) (ite $x805 (+ (- ?x627 ?x423) 1) ?x756))))
 (let ((?x545 (ite $x1485 182 181)))
 (let (($x843 (>= ?x627 ?x545)))
 (let ((?x563 (ite $x1485 213 212)))
 (let (($x447 (>= ?x627 ?x563)))
 (let ((?x809 (ite $x447 (+ (- ?x627 ?x563) 1) (ite $x843 (+ (- ?x627 ?x545) 1) ?x632))))
 (let ((?x621 (ite $x1485 244 243)))
 (let (($x855 (>= ?x627 ?x621)))
 (let ((?x2528 (ite $x1485 274 273)))
 (let (($x823 (>= ?x627 ?x2528)))
 (let ((?x443 (ite $x823 (+ (- ?x627 ?x2528) 1) (ite $x855 (+ (- ?x627 ?x621) 1) ?x809))))
 (let ((?x450 (ite $x1485 305 304)))
 (let (($x577 (>= ?x627 ?x450)))
 (let ((?x3151 (ite $x1485 335 334)))
 (let (($x972 (>= ?x627 ?x3151)))
 (let ((?x492 (ite $x972 (+ (- ?x627 ?x3151) 1) (ite $x577 (+ (- ?x627 ?x450) 1) ?x443))))
 (let ((?x807 (+ (* 1 12) 0)))
 (let ((?x850 (ite $x805 5 (ite $x620 4 (ite $x991 3 (ite $x862 2 1))))))
 (let ((?x890 (ite $x855 9 (ite $x447 8 (ite $x843 7 (ite $x429 6 ?x850))))))
 (let ((?x738 (ite $x972 12 (ite $x577 11 (ite $x823 10 ?x890)))))
 (let ((?x2626 (+ ?x738 ?x807)))
 (let ((?x1066 (- ?x2626 1)))
 (let ((?x755 (+ (mod ?x1066 12) 1)))
 (let ((?x3122 (ite (or (= ?x755 4) (= ?x755 6) (= ?x755 9) (= ?x755 11)) 30 31)))
 (let (($x513 (and (= (mod (+ ?x481 (+ 0 (div ?x1066 12))) 4) 0) (and (distinct (mod (+ ?x481 (+ 0 (div ?x1066 12))) 100) 0) true))))
 (let (($x3529 (or $x513 (= (mod (+ ?x481 (+ 0 (div ?x1066 12))) 400) 0))))
 (let ((?x3483 (ite (= ?x755 2) (ite $x3529 29 28) ?x3122)))
 (let ((?x485 (ite (> 1 ?x492) 1 (ite (> ?x492 ?x3483) ?x3483 ?x492))))
 (let ((?x511 (ite (> 1 ?x485) 1 (ite (> ?x485 ?x3483) ?x3483 ?x485))))
 (let ((?x898 (ite (= 2 ?x755) (ite $x3529 31 31) (ite (= 1 ?x755) (ite $x3529 0 0) 0))))
 (let ((?x3484 (ite (= 4 ?x755) (ite $x3529 91 90) (ite (= 3 ?x755) (ite $x3529 60 59) ?x898))))
 (let ((?x1126 (ite (= 6 ?x755) (ite $x3529 152 151) (ite (= 5 ?x755) (ite $x3529 121 120) ?x3484))))
 (let ((?x3057 (ite (= 8 ?x755) (ite $x3529 213 212) (ite (= 7 ?x755) (ite $x3529 182 181) ?x1126))))
 (let ((?x3030 (ite (= 10 ?x755) (ite $x3529 274 273) (ite (= 9 ?x755) (ite $x3529 244 243) ?x3057))))
 (let ((?x1037 (ite (= 12 ?x755) (ite $x3529 335 334) (ite (= 11 ?x755) (ite $x3529 305 304) ?x3030))))
 (let ((?x3271 (+ (* 365 (- (+ ?x481 (+ 0 (div ?x1066 12))) 1)) (div (- (+ ?x481 (+ 0 (div ?x1066 12))) 1) 4))))
 (let ((?x1835 (+ (- ?x3271 (div (- (+ ?x481 (+ 0 (div ?x1066 12))) 1) 100)) (div (- (+ ?x481 (+ 0 (div ?x1066 12))) 1) 400))))
 (let ((?x1176 (+ (+ (- (+ (+ ?x1835 ?x1037) (- ?x511 1)) 730179) 0) 730179)))
 (let ((?x838 (mod ?x1176 146097)))
 (let ((?x1550 (div ?x838 36524)))
 (let ((?x1763 (ite (<= 4 ?x1550) 3 ?x1550)))
 (let ((?x1859 (- ?x838 (* ?x1763 36524))))
 (let ((?x3719 (mod ?x1859 1461)))
 (let ((?x539 (div ?x3719 365)))
 (let ((?x623 (ite (<= 4 ?x539) 3 ?x539)))
 (let ((?x692 (+ (+ (* (div ?x1176 146097) 400) (* ?x1763 100)) (* (div ?x1859 1461) 4))))
 (let ((?x715 (+ (+ ?x692 ?x623) 1)))
 (let (($x967 (or (and (= (mod ?x715 4) 0) (and (distinct (mod ?x715 100) 0) true)) (= (mod ?x715 400) 0))))
 (let ((?x673 (- ?x3719 (* ?x623 365))))
 (let ((?x412 (ite $x967 31 31)))
 (let (($x3140 (>= ?x673 ?x412)))
 (let ((?x3452 (ite $x3140 (+ (- ?x673 ?x412) 1) (+ (- ?x673 (ite $x967 0 0)) 1))))
 (let ((?x1699 (ite $x967 60 59)))
 (let (($x1174 (>= ?x673 ?x1699)))
 (let ((?x1103 (ite $x967 91 90)))
 (let (($x590 (>= ?x673 ?x1103)))
 (let ((?x1857 (ite $x590 (+ (- ?x673 ?x1103) 1) (ite $x1174 (+ (- ?x673 ?x1699) 1) ?x3452))))
 (let ((?x2946 (ite $x967 121 120)))
 (let (($x508 (>= ?x673 ?x2946)))
 (let ((?x2645 (ite $x967 152 151)))
 (let (($x524 (>= ?x673 ?x2645)))
 (let ((?x697 (ite $x524 (+ (- ?x673 ?x2645) 1) (ite $x508 (+ (- ?x673 ?x2946) 1) ?x1857))))
 (let ((?x810 (ite $x967 182 181)))
 (let (($x2892 (>= ?x673 ?x810)))
 (let ((?x2914 (ite $x967 213 212)))
 (let (($x3190 (>= ?x673 ?x2914)))
 (let ((?x2345 (ite $x3190 (+ (- ?x673 ?x2914) 1) (ite $x2892 (+ (- ?x673 ?x810) 1) ?x697))))
 (let ((?x757 (ite $x967 244 243)))
 (let (($x575 (>= ?x673 ?x757)))
 (let ((?x2915 (ite $x967 274 273)))
 (let (($x1528 (>= ?x673 ?x2915)))
 (let ((?x1514 (ite $x1528 (+ (- ?x673 ?x2915) 1) (ite $x575 (+ (- ?x673 ?x757) 1) ?x2345))))
 (let ((?x1769 (ite $x967 305 304)))
 (let (($x3071 (>= ?x673 ?x1769)))
 (let ((?x557 (ite $x967 335 334)))
 (let (($x1214 (>= ?x673 ?x557)))
 (let ((?x976 (ite $x1214 (+ (- ?x673 ?x557) 1) (ite $x3071 (+ (- ?x673 ?x1769) 1) ?x1514))))
 (let (($x1083 (= 0 0)))
 (let ((?x629 (ite $x1083 ?x511 ?x976)))
 (= x_plus_day ?x629)))))))))))))))))))))))))))))))))))))))))))))))))))))))))))))))))))))))))))))))))))))))))))))))))))))))))
(assert
 (= x_plus_epoch 7669))
(check-sat)
